n = 35;
lu = [|-850, 884
      |-1080, 287
      |567, 937
      |-784, 646
      |-71, 325
      |508, 593
      |-1023, -634
      |-853, 467
      |-918, 1001
      |-43, 254
      |545, 1182
      |274, 1079
      |-1086, 1122
      |-352, 932
      |482, 844
      |-1190, -967
      |-1194, 864
      |-944, 253
      |-304, 1150
      |-1129, 101
      |216, 935
      |-1137, -573
      |-1170, -333
      |-295, 51
      |10, 866
      |-1053, -67
      |-392, -109
      |-639, 746
      |-353, -134
      |-1028, 572
      |-796, 614
      |-1215, 1055
      |-246, -133
      |-864, 590
      |-692, 172|];
